
Gurobi 12.0.1 (win64, C++) logging started Thu Apr 17 14:21:34 2025

Set parameter Username
Set parameter LicenseID to value 2618661
Academic license - for non-commercial use only - expires 2026-02-05
Set parameter Threads to value 8
Set parameter LazyConstraints to value 1
Set parameter PreCrush to value 1
Set parameter Seed to value 10
Set parameter Cuts to value -1
Set parameter TimeLimit to value 28800
Set parameter NumericFocus to value 0
Set parameter SolutionLimit to value 10000
Gurobi Optimizer version 12.0.1 build v12.0.1rc0 (win64 - Windows Server 2022.0 (20348.2))

CPU model: AMD EPYC 7513 32-Core Processor, instruction set [SSE2|AVX|AVX2]
Thread count: 18 physical cores, 18 logical processors, using up to 8 threads

Non-default parameters:
SolutionLimit  10000
TimeLimit  28800
PreCrush  1
Seed  10
Threads  8
LazyConstraints  1

Optimize a model with 255 rows, 484 columns and 1388 nonzeros
Model fingerprint: 0x9f999040
Variable types: 0 continuous, 484 integer (484 binary)
Coefficient statistics:
  Matrix range     [1e+00, 1e+00]
  Objective range  [3e+00, 8e+01]
  Bounds range     [1e+00, 1e+00]
  RHS range        [1e+00, 6e+00]

User MIP start produced solution with objective 523.584 (0.02s)
Loaded user MIP start with objective 523.584

Presolve removed 6 rows and 30 columns
Presolve time: 0.02s
Presolved: 249 rows, 454 columns, 1300 nonzeros
Variable types: 0 continuous, 454 integer (454 binary)

Root relaxation: objective 3.576230e+02, 79 iterations, 0.00 seconds (0.00 work units)

    Nodes    |    Current Node    |     Objective Bounds      |     Work
 Expl Unexpl |  Obj  Depth IntInf | Incumbent    BestBd   Gap | It/Node Time

     0     0  357.62304    0   14  523.58445  357.62304  31.7%     -    0s
     0     0  371.96520    0    -  523.58445  371.96520  29.0%     -    0s
     0     0  413.91655    0   13  523.58445  413.91655  20.9%     -    0s
     0     0  424.33003    0   14  523.58445  424.33003  19.0%     -    0s
     0     0  462.45430    0   36  523.58445  462.45430  11.7%     -    0s
     0     0  462.57630    0   37  523.58445  462.57630  11.7%     -    0s
     0     0  462.57630    0   30  523.58445  462.57630  11.7%     -    0s
     0     2  470.89295    0   39  523.58445  470.89295  10.1%     -    0s
H   48    41                     513.1160197  488.88139  4.72%  47.8    2s
*   51    39               7     495.8477702  488.88139  1.40%  53.5    2s
   195    15     cutoff   22       495.84777  491.08147  0.96%  31.7    5s

Cutting planes:
  Gomory: 2
  MIR: 1
  Lazy constraints: 2295

Explored 288 nodes (8245 simplex iterations) in 5.42 seconds (1.03 work units)
Thread count was 8 (of 18 available processors)

Solution count 3: 495.848 513.116 523.584 

Optimal solution found (tolerance 1.00e-04)
Best objective 4.958477702001e+02, best bound 4.958477702001e+02, gap 0.0000%

User-callback calls 897, time in user-callback 4.34 sec
### START EXACT APPROACH ###
ProblemVariant: 2
### START PREPROCESSING ###
## Start infeasible path procedure ## 
Deleted arcs: 8
Infeasible tail paths: 1
Infeasible 2-node combinations: 4
## Start extended infeasible path procedure ##
Deleted arcs: 8
Infeasible tail paths: 1
Infeasible 2-node combinations: 4
## Start start solution procedure ##
Start solution with 6 Vehicles and total costs 523.584 in 0.683582 s.
### END PREPROCESSING ###
Route 0 0-4-3-1-2-0 : weight util 1.000000 | volume util 0.312000 | feasible with packing heuristic | feasible with CP model
Route 1 0-8-6-5-7-9-0 : weight util 0.975000 | volume util 0.618978 | infeasible with packing heuristic | feasible with CP model
Route 2 0-15-12-10-11-0 : weight util 1.000000 | volume util 0.455978 | feasible with packing heuristic | feasible with CP model
Route 3 0-16-13-0 : weight util 0.850000 | volume util 0.151933 | feasible with packing heuristic | feasible with CP model
Route 4 0-18-20-17-14-0 : weight util 1.000000 | volume util 0.498622 | feasible with packing heuristic | feasible with CP model
Route 5 0-21-19-0 : weight util 0.800000 | volume util 0.196089 | feasible with packing heuristic | feasible with CP model
